20190626 16 0 0 0
20180601 16 0 0 0
20170519 40 0 0 0
20160613 50 0 0 0
20150423 100 0 0 0
20140526 100 0 0 0
20130617 100 0 0 0
20120619 100 0 0 0
20110517 80 0 0 0
20100420 100 0 0 0
20090521 140 0 0 0
20080512 30 8000 0 0
20070425 150 0 0 0
20060522 120 0 0 0
20060206 0 3600 0 0
20050525 200 0 0 0
